 10	68
 16
  0	 26	 29	 94	 41	 40	 56	 97	 35	109	 20	108	103	 88	124	137	
 12
  0	 10	 78	 55	123	  6	 65	 28	 96	 74	133	137	
 28
  0	 25	 42	110	 93	 22	 23	 90	 21	 30	 33	 89	 98	 50	 91	101	118	  5	 13	 15	 73	 53	 64	 81	 83	121	132	137	
 20
  0	 14	 82	 67	 49	 60	  2	128	 45	  8	 70	135	 54	 76	113	122	 24	117	 92	137	
  6
  0	  9	 37	 77	105	137	
 16
  0	  7	 47	 43	 75	 52	115	120	 27	 16	 68	 95	 84	111	136	137	
 12
  0	 51	119	 32	100	 19	 57	 66	125	134	 87	137	
 10
  0	  4	  1	 72	 63	131	 69	 44	112	137	
 18
  0	 34	102	 46	114	 17	 48	 85	  3	 11	116	 79	 12	 71	 58	 80	126	137	
 18
  0	 59	 38	127	 18	106	 36	104	 62	 86	130	 39	107	 31	 61	 99	129	137	
